************************************************************************
file with basedata            : md344_.bas
initial value random generator: 18595865
************************************************************************
projects                      :  1
jobs (incl. supersource/sink ):  22
horizon                       :  156
RESOURCES
  - renewable                 :  2   R
  - nonrenewable              :  2   N
  - doubly constrained        :  0   D
************************************************************************
PROJECT INFORMATION:
pronr.  #jobs rel.date duedate tardcost  MPM-Time
    1     20      0       27       11       27
************************************************************************
PRECEDENCE RELATIONS:
jobnr.    #modes  #successors   successors
   1        1          3           2   3   4
   2        3          2           9  13
   3        3          1          16
   4        3          3           5   7   8
   5        3          3           6  14  16
   6        3          3          10  11  13
   7        3          3          14  17  18
   8        3          2          13  16
   9        3          2          10  11
  10        3          2          12  18
  11        3          2          15  19
  12        3          2          15  21
  13        3          1          21
  14        3          2          19  20
  15        3          1          17
  16        3          1          18
  17        3          1          20
  18        3          3          19  20  21
  19        3          1          22
  20        3          1          22
  21        3          1          22
  22        1          0        
************************************************************************
REQUESTS/DURATIONS:
jobnr. mode duration  R 1  R 2  N 1  N 2
------------------------------------------------------------------------
  1      1     0       0    0    0    0
  2      1     3       7    7    0    4
         2     7       7    5    4    0
         3    10       4    3    0    4
  3      1     4       6    9    3    0
         2     4       7    7    2    0
         3     8       6    5    0    6
  4      1     3       9    9    6    0
         2     4       9    8    5    0
         3     5       8    8    4    0
  5      1     3       5    9    8    0
         2     7       5    7    7    0
         3     9       5    4    5    0
  6      1     3       3   10    0    6
         2     5       2    9    0    5
         3     5       2   10   10    0
  7      1     7       3    6    7    0
         2     8       3    5    5    0
         3     9       2    3    4    0
  8      1     5       8    6    1    0
         2     7       7    6    0    6
         3     9       7    3    0    2
  9      1     3       2    7    0    7
         2     4       1    6    0    6
         3     5       1    5    0    5
 10      1     5       5    9    0   10
         2     7       4    5    0   10
         3     8       4    1    0   10
 11      1     5       6    7    8    0
         2     5       6    7    0    9
         3     9       5    7    0    7
 12      1     4       7    4    0    4
         2     6       3    4    4    0
         3     8       2    3    0    4
 13      1     3       3    6    6    0
         2     5       1    4    5    0
         3     5       2    3    0    3
 14      1     2       5    4    0    6
         2     5       5    4    0    5
         3     6       5    3    1    0
 15      1     1       9    9    3    0
         2     7       8    9    0    7
         3     8       7    8    0    7
 16      1     6       7    9    2    0
         2     6       7    9    0    4
         3     8       6    8    0    4
 17      1     1       6    9    0    7
         2     7       5    5    0    5
         3     9       5    4    6    0
 18      1     6       1   10    0    8
         2     8       1    9    0    5
         3     8       1    9    5    0
 19      1     2       5    7    0    5
         2     9       5    5    0    4
         3    10       5    2    9    0
 20      1     7      10    5    0    6
         2     8       9    3    0    6
         3     8       8    5    6    0
 21      1     5       8   10    0    4
         2     5       9   10    0    2
         3     9       3    8    8    0
 22      1     0       0    0    0    0
************************************************************************
RESOURCEAVAILABILITIES:
  R 1  R 2  N 1  N 2
   26   37   76   80
************************************************************************
MAXIMAL LAGS:
from  to  type  delay
    1   12   ES      0
    1    2   ES      0
    2   12   ES      0
    1    3   ES      0
    3   12   ES      0
    1    4   ES      0
    4   12   ES      0
    1    5   ES      0
    5   12   ES      0
    1    6   ES      0
    6   12   ES      0
    1    7   ES      0
    7   12   ES      0
    1    8   ES      0
    8   12   ES      0
    1    9   ES      0
    9   12   ES      0
    1   10   ES      0
   10   12   ES      0
    1   11   ES      0
   11   12   ES      0
    1   12   ES      0
    2    9   SS      0
    2    9   SE     -3
    2    9   ES     -6
    2    9   EE      5
    2   13   SS      8
    2   13   SE     -9
    2   13   ES     -6
    2   13   EE    -12
    3   16   SS    -12
    3   16   SE    -12
    3   16   ES     -3
    3   16   EE     -9
    4    5   SS     -6
    4    5   SE     -7
    4    5   ES     12
    4    5   EE      9
    4    7   SS    -10
    4    7   SE    -10
    4    7   ES     -4
    4    7   EE      2
    4    8   SS     -9
    4    8   SE      1
    4    8   ES     -1
    4    8   EE      9
    5    6   SS      0
    5    6   SE    -12
    5    6   ES     10
    5    6   EE      7
    5   14   SS     -3
    5   14   SE     -2
   14    5   SE      0
    5   14   ES      0
    5   14   EE     -1
    5   16   SS     -6
    5   16   SE     -3
    5   16   ES      1
    5   16   EE      7
    6   10   SS      6
    6   10   SE      3
    6   10   ES      8
    6   10   EE      7
    6   11   SS      6
    6   11   SE    -11
    6   11   ES      9
    6   11   EE      3
    6   13   SS    -11
    6   13   SE      3
    6   13   ES     -2
    6   13   EE     -1
    7   14   SS    -12
    7   14   SE     -4
    7   14   ES     10
    7   14   EE      3
    7   17   SS      0
    7   17   SE     12
    7   17   ES      5
    7   17   EE     12
    7   18   SS     -9
    7   18   SE      1
    7   18   ES     10
    7   18   EE      6
    8   13   SS      7
    8   13   SE     -1
    8   13   ES      9
    8   13   EE      3
    8   16   SS    -12
    8   16   SE      0
    8   16   ES    -11
    8   16   EE      3
    9   10   SS     12
    9   10   SE    -10
    9   10   ES      3
    9   10   EE     -4
    9   11   SS      5
    9   11   SE    -10
    9   11   ES    -10
    9   11   EE     -5
   10   18   SS     11
   10   18   SE     10
   10   18   ES      8
   10   18   EE     -9
   11   15   SS      2
   11   15   SE      0
   11   15   ES     11
   11   15   EE     -2
   11   19   SS     -5
   11   19   SE      7
   11   19   ES      3
   11   19   EE    -11
   12   15   SS     -2
   12   15   SE     -3
   12   15   ES      5
   12   15   EE     12
   12   21   SS     10
   12   21   SE      2
   12   21   ES     -6
   12   21   EE      7
   13   21   SS      1
   13   21   SE     -9
   13   21   ES    -12
   13   21   EE      9
   14   19   SS     -8
   14   19   SE      6
   14   19   ES      9
   14   19   EE     12
   14   20   SS    -12
   14   20   SE      4
   14   20   ES      2
   14   20   EE    -10
   15   17   SS      4
   15   17   SE     -7
   15   17   ES      2
   15   17   EE     -4
   16   18   SS     10
   16   18   SE      6
   16   18   ES      0
   16   18   EE      5
   17   20   SS      8
   17   20   SE     11
   17   20   ES    -11
   17   20   EE     -4
   18   19   SS      6
   18   19   SE     -9
   18   19   ES     10
   18   19   EE      4
   18   20   SS      3
   18   20   SE     -7
   18   20   ES      2
   18   20   EE     -3
   18   21   SS     -7
   18   21   SE    -11
   18   21   ES     -3
   18   21   EE      7
   19   22   SS     -2
   19   22   SE      1
   19   22   ES     -9
   19   22   EE      9
   20   22   SS     -8
   20   22   SE    -10
   20   22   ES     -6
   20   22   EE      3
   21   22   SS      3
   21   22   SE     -5
   21   22   ES    -12
   21   22   EE      0
************************************************************************
